qbf_easy_train/easy_3997_SAT.qdimacs
p cnf 22 54
a 3 20 5 0
e 1 2 4 6 7 8 9 10 11 12 13 14 15 16 17 18 19 21 22 0
-1 -2 -3 0
1 2 -3 0
-1 2 3 0
1 -2 3 0
-3 -4 -5 0
3 4 -5 0
-3 4 5 0
3 -4 5 0
8 7 0
8 1 0
-7 -1 -8 0
6 8 -9 0
-6 -8 -9 0
6 -8 9 0
-6 8 9 0
10 9 0
10 1 0
-9 -1 -10 0
11 2 0
11 10 0
-2 -10 -11 0
-12 8 -13 0
12 -8 -13 0
-12 -8 13 0
12 8 13 0
14 -1 0
14 13 0
1 -13 -14 0
11 14 -15 0
-11 -14 -15 0
11 -14 15 0
-11 14 15 0
16 5 0
16 -15 0
-5 15 -16 0
17 -9 -18 0
-17 9 -18 0
17 9 18 0
-17 -9 18 0
20 7 0
20 -19 0
-7 19 -20 0
-21 -18 0
-21 20 0
18 -20 21 0
22 16 0
22 21 0
-16 -21 -22 0
3 1 -15 0
12 -5 7 0
12 -6 22 0
3 19 -20 -8 -22 2 17 0
2 3 -21 17 18 0
22 0
