sat_easy_train/easy_3997_SAT.dimacs
p cnf 113 375
-1 2 -3 0
1 -2 -3 0
-1 -2 3 0
1 2 3 0
-5 4 0
-5 2 0
-4 -2 5 0
6 -3 0
6 -5 0
3 5 -6 0
-10 8 0
-10 -9 0
-8 9 10 0
10 -11 -12 0
-10 11 -12 0
10 11 12 0
-10 -11 12 0
14 -12 0
14 -13 0
12 13 -14 0
7 14 -15 0
-7 -14 -15 0
7 -14 15 0
-7 14 15 0
-17 -4 0
-17 -16 0
4 16 17 0
-12 14 -18 0
12 -14 -18 0
-12 -14 18 0
12 14 18 0
19 17 0
19 18 0
-17 -18 -19 0
-21 20 0
-21 13 0
-20 -13 21 0
-22 19 0
-22 -21 0
-19 21 22 0
-23 20 0
-23 -2 0
-20 2 23 0
1 -23 -24 0
-1 23 -24 0
1 23 24 0
-1 -23 24 0
-25 -22 0
-25 24 0
22 -24 25 0
27 26 0
27 -8 0
-26 8 -27 0
-28 25 0
-28 -27 0
-25 27 28 0
15 -28 -29 0
-15 28 -29 0
15 28 29 0
-15 -28 29 0
30 -6 0
30 29 0
6 -29 -30 0
-31 -4 0
-31 16 0
4 -16 31 0
-32 10 0
-32 -20 0
-10 20 32 0
-33 20 0
-33 -32 0
-20 32 33 0
-34 11 0
-34 33 0
-11 -33 34 0
35 34 0
35 11 0
-34 -11 -35 0
37 36 0
37 -10 0
-36 10 -37 0
-40 -38 0
-40 -39 0
38 39 40 0
-41 -39 0
-41 -4 0
39 4 41 0
-42 7 0
-42 -41 0
-7 41 42 0
43 -40 0
43 -42 0
40 42 -43 0
44 -37 0
44 43 0
37 -43 -44 0
-19 -39 -45 0
19 39 -45 0
-19 39 45 0
19 -39 45 0
-46 -1 0
-46 -45 0
1 45 46 0
36 -46 -47 0
-36 46 -47 0
36 46 47 0
-36 -46 47 0
-48 -44 0
-48 47 0
44 -47 48 0
-49 -37 0
-49 1 0
37 -1 49 0
48 49 -50 0
-48 -49 -50 0
48 -49 50 0
-48 49 50 0
10 -9 -51 0
-10 9 -51 0
10 9 51 0
-10 -9 51 0
12 -7 -52 0
-12 7 -52 0
12 7 52 0
-12 -7 52 0
51 -52 -53 0
-51 52 -53 0
51 52 53 0
-51 -52 53 0
-54 50 0
-54 -53 0
-50 53 54 0
-55 -39 0
-55 -19 0
39 19 55 0
56 12 0
56 10 0
-12 -10 -56 0
-13 -9 -57 0
13 9 -57 0
-13 9 57 0
13 -9 57 0
36 57 -58 0
-36 -57 -58 0
36 -57 58 0
-36 57 58 0
59 -23 0
59 -42 0
23 42 -59 0
60 59 0
60 -34 0
-59 34 -60 0
58 60 -61 0
-58 -60 -61 0
58 -60 61 0
-58 60 61 0
-62 56 0
-62 61 0
-56 -61 62 0
64 -3 0
64 -63 0
3 63 -64 0
-65 62 0
-65 -64 0
-62 64 65 0
66 -21 0
66 11 0
21 -11 -66 0
-67 65 0
-67 66 0
-65 -66 67 0
-68 -55 0
-68 67 0
55 -67 68 0
54 68 -69 0
-54 -68 -69 0
54 -68 69 0
-54 68 69 0
35 -69 -70 0
-35 69 -70 0
35 69 70 0
-35 -69 70 0
-71 13 0
-71 16 0
-13 -16 71 0
-20 -71 -72 0
20 71 -72 0
-20 71 72 0
20 -71 72 0
-73 -70 0
-73 -72 0
70 72 73 0
-31 73 -74 0
31 -73 -74 0
-31 -73 74 0
31 73 74 0
75 -30 0
75 74 0
30 -74 -75 0
76 -4 0
76 42 0
4 -42 -76 0
52 -2 -77 0
-52 2 -77 0
52 2 77 0
-52 -2 77 0
-78 -76 0
-78 77 0
76 -77 78 0
-79 -8 0
-79 -43 0
8 43 79 0
57 -23 -80 0
-57 23 -80 0
57 23 80 0
-57 -23 80 0
-81 -79 0
-81 -80 0
79 80 81 0
78 81 -82 0
-78 -81 -82 0
78 -81 82 0
-78 81 82 0
-2 -17 -83 0
2 17 -83 0
-2 17 83 0
2 -17 83 0
-83 3 -84 0
83 -3 -84 0
-83 -3 84 0
83 3 84 0
-34 -41 -85 0
34 41 -85 0
-34 41 85 0
34 -41 85 0
-86 -85 0
-86 18 0
85 -18 86 0
-87 -86 0
-87 83 0
86 -83 87 0
-88 -84 0
-88 87 0
84 -87 88 0
-89 82 0
-89 88 0
-82 -88 89 0
-91 -83 0
-91 -90 0
83 90 91 0
-92 39 0
-92 10 0
-39 -10 92 0
93 -92 0
93 -4 0
92 4 -93 0
94 93 0
94 -12 0
-93 12 -94 0
-95 91 0
-95 -94 0
-91 94 95 0
-89 95 -96 0
89 -95 -96 0
-89 -95 96 0
89 95 96 0
-8 26 -97 0
8 -26 -97 0
-8 -26 97 0
8 26 97 0
97 32 -98 0
-97 -32 -98 0
97 -32 98 0
-97 32 98 0
-98 -41 -99 0
98 41 -99 0
-98 41 99 0
98 -41 99 0
18 99 -100 0
-18 -99 -100 0
18 -99 100 0
-18 99 100 0
101 -96 0
101 100 0
96 -100 -101 0
-20 -13 -102 0
20 13 -102 0
-20 13 102 0
20 -13 102 0
-103 -59 0
-103 -102 0
59 102 103 0
104 17 0
104 -103 0
-17 103 -104 0
105 7 0
105 -17 0
-7 17 -105 0
-104 105 -106 0
104 -105 -106 0
-104 -105 106 0
104 105 106 0
-107 -32 0
-107 2 0
32 -2 107 0
9 -107 -108 0
-9 107 -108 0
9 107 108 0
-9 -107 108 0
-109 108 0
-109 98 0
-108 -98 109 0
12 109 -110 0
-12 -109 -110 0
12 -109 110 0
-12 109 110 0
-111 106 0
-111 110 0
-106 -110 111 0
-112 -101 0
-112 -111 0
101 111 112 0
-113 75 0
-113 -112 0
-75 112 113 0
7 30 0
92 -4 -64 18 -81 -51 0
44 -14 0
2 87 62 -85 -4 64 0
-76 -34 -75 -66 0
-3 -54 0
-57 -29 75 0
13 43 -46 0
94 -21 65 -109 -87 0
71 20 33 0
82 105 -110 89 -9 0
94 109 -74 64 39 0
-87 -37 -26 0
51 -25 97 -81 0
-88 43 83 -47 55 -94 0
69 4 -73 0
-61 -97 92 107 -87 54 0
-101 -97 38 -67 -108 0
-85 -92 0
54 15 -26 23 43 0
25 24 -113 8 77 0
-38 -58 1 97 0
17 59 -95 -25 0
53 -111 -58 -17 0
86 101 35 -104 0
-76 -60 0
-63 -101 -92 79 -76 -59 0
36 91 -103 0
42 7 0
68 -75 -43 -48 56 57 0
-20 52 -97 45 66 -36 0
-112 -65 59 -10 0
-53 -97 95 102 36 103 0
83 -105 -66 -97 0
-2 -21 0
109 -91 79 0
-33 38 -24 4 -42 0
14 -31 -22 -107 0
65 -48 41 109 -30 0
-55 75 0
-67 47 39 0
84 -75 56 -65 112 24 0
-62 -82 0
83 111 105 0
37 -4 -80 -58 0
-1 -96 0
83 94 0
-3 -60 -107 56 0
40 26 -94 17 0
113 0
